
  12    4
  10   10   10   10

   0   0   0   0   0   2 2 4 
   4  10  10  10  10   2 8 3 
   9  10  10  10  10   2 11 5 
   3  10  10  10  10   2 8 5 
   1  10  10  10  10   2 7 6 
   6  10  10  10  10   1 9 
   8  10  10  10  10   1 9 
   3  10  10  10  10   1 9 
  10  10  10  10  10   1 10 
   8  10  10  10  10   1 12
   7  10  10  10  10   1 12
   0   0   0   0   0   0 
